
******************************************************************************
This program contains Ipopt, a library for large-scale nonlinear optimization.
 Ipopt is released as open source code under the Eclipse Public License (EPL).
         For more information visit http://projects.coin-or.org/Ipopt

This version of Ipopt was compiled from source code available at
    https://github.com/IDAES/Ipopt as part of the Institute for the Design of
    Advanced Energy Systems Process Systems Engineering Framework (IDAES PSE
    Framework) Copyright (c) 2018-2019. See https://github.com/IDAES/idaes-pse.

This version of Ipopt was compiled using HSL, a collection of Fortran codes
    for large-scale scientific computation.  All technical papers, sales and
    publicity material resulting from use of the HSL codes within IPOPT must
    contain the following acknowledgement:
        HSL, a collection of Fortran codes for large-scale scientific
        computation. See http://www.hsl.rl.ac.uk.
******************************************************************************

This is Ipopt version 3.13.2, running with linear solver ma27.

Number of nonzeros in equality constraint Jacobian...:     1588
Number of nonzeros in inequality constraint Jacobian.:        0
Number of nonzeros in Lagrangian Hessian.............:     2432

Total number of variables............................:      576
                     variables with only lower bounds:      128
                variables with lower and upper bounds:      384
                     variables with only upper bounds:        0
Total number of equality constraints.................:      570
Total number of inequality constraints...............:        0
        inequality constraints with only lower bounds:        0
   inequality constraints with lower and upper bounds:        0
        inequality constraints with only upper bounds:        0

iter    objective    inf_pr   inf_du lg(mu)  ||d||  lg(rg) alpha_du alpha_pr  ls
   0  0.0000000e+00 2.07e+00 1.30e-13  -1.0 0.00e+00    -  0.00e+00 0.00e+00   0
   1  7.4073929e-01 2.05e+00 1.89e+03  -1.0 1.05e+06    -  3.78e-02 5.68e-03h  3
   2  1.1112474e+01 2.03e+00 4.47e+04  -1.0 1.31e+06    -  4.88e-02 1.57e-02h  2
   3  3.8295352e+01 1.87e+00 1.00e+05  -1.0 1.91e+06    -  1.78e-02 1.47e-02h  4
   4  6.5057266e+01 1.75e+00 1.20e+05  -1.0 2.02e+06    -  8.50e-03 9.21e-03h  4
   5  8.3562291e+01 1.78e+00 1.12e+05  -1.0 2.05e+06    -  7.72e-03 5.73e-03h  5
   6  8.5505482e+01 1.79e+00 1.10e+05  -1.0 3.22e+06    -  7.23e-03 7.41e-04h  7
   7  8.7672498e+01 1.79e+00 1.08e+05  -1.0 3.15e+06    -  9.23e-03 7.90e-04h  7
   8  8.8917376e+01 1.79e+00 1.08e+05  -1.0 2.98e+06    -  1.21e-02 4.36e-04h  8
   9  8.9080523e+01 1.79e+00 1.07e+05  -1.0 3.02e+06    -  1.42e-02 5.60e-05h 11
iter    objective    inf_pr   inf_du lg(mu)  ||d||  lg(rg) alpha_du alpha_pr  ls
  10  8.9137622e+01 1.79e+00 1.07e+05  -1.0 4.42e+06    -  1.21e-02 1.92e-05h 12
  11  1.0020089e+03 1.47e+03 7.58e+10  -1.0 2.16e+06  -4.0 3.78e-02 1.16e-01w  1
  12  8.5806004e+02 1.47e+03 7.58e+10  -1.0 8.98e+11    -  1.60e-06 4.79e-07w  1
  13  1.8447393e+04 1.47e+03 7.58e+10  -1.0 2.66e+11    -  3.99e-07 2.77e-06w  1
  14  2.6913067e+02 7.52e+01 2.79e+07  -1.0 1.25e+12    -  3.78e-02 3.78e-02s 50
  15r 2.6913067e+02 7.52e+01 9.99e+02   1.9 0.00e+00   0.0 0.00e+00 0.00e+00R  1
  16r 2.6913089e+02 4.40e+01 9.93e+02   1.9 1.14e+04    -  1.69e-02 4.45e-03f  1
  17r 2.6913069e+02 2.29e+00 9.79e+02   1.9 7.25e+03    -  2.54e-02 6.01e-03f  1
  18r 2.6913041e+02 1.62e+00 9.47e+02   1.9 5.32e+02    -  9.96e-02 1.60e-02f  1
  19r 2.6913142e+02 6.77e-01 8.23e+02   1.9 3.40e+02    -  5.00e-01 9.61e-02f  1
iter    objective    inf_pr   inf_du lg(mu)  ||d||  lg(rg) alpha_du alpha_pr  ls
  20r 2.6913486e+02 1.39e+00 4.69e+02   1.9 4.55e+01    -  4.81e-01 4.20e-01f  1
  21  1.9831377e+02 9.71e-01 1.50e+06  -1.0 4.57e+05    -  6.71e-01 5.14e-01f  1
  22  1.7083218e+02 7.41e+00 6.95e+05  -1.0 2.01e+05    -  8.64e-01 9.90e-01h  1
  23  1.4962637e+02 7.41e-02 7.40e+03  -1.0 4.84e+04    -  9.31e-01 9.90e-01f  1
  24  9.0787580e+01 2.35e+00 1.94e+03  -1.0 4.27e+04    -  9.44e-01 9.90e-01f  1
  25  7.9649336e+01 4.17e-01 2.08e+06  -1.0 2.61e+04    -  3.68e-01 9.90e-01f  1
  26  7.9852488e+01 1.52e-01 1.65e+08  -1.0 3.53e+02  -0.4 9.90e-01 4.95e-01h  2
  27  8.0058082e+01 5.51e-03 1.77e+06  -1.0 1.78e+02  -0.9 9.90e-01 9.90e-01h  1
  28  8.0059999e+01 6.33e-05 6.63e+08  -1.0 1.59e+00  -1.4 1.00e+00 9.90e-01h  1
  29  8.0060023e+01 6.34e-07 6.63e+10  -1.0 1.59e-02  -1.9 1.00e+00 9.90e-01h  1
In iteration 29, 32 Slacks too small, adjusting variable bounds
iter    objective    inf_pr   inf_du lg(mu)  ||d||  lg(rg) alpha_du alpha_pr  ls
  30  8.0749258e+01 9.65e-05 6.63e+12  -1.0 2.75e+03    -  1.00e+00 9.90e-01h  1
  31  8.0753822e+01 2.69e-06 1.23e-01  -1.0 7.49e+02    -  1.00e+00 1.00e+00h  1
  32  7.7740991e+01 6.61e-04 5.62e+11  -8.6 2.64e+03    -  9.17e-01 1.00e+00f  1
  33  7.7488844e+01 4.37e-05 3.40e+09  -8.6 2.73e+02    -  9.94e-01 9.57e-01f  1
  34  7.7490507e+01 6.72e-09 4.55e-07  -8.6 3.76e+00    -  1.00e+00 1.00e+00h  1

Number of Iterations....: 34

                                   (scaled)                 (unscaled)
Objective...............:   7.7490507331245439e+01    7.7490507331245439e+01
Dual infeasibility......:   4.5495107769966125e-07    4.5495107769966125e-07
Constraint violation....:   6.7201151310314344e-09    6.7201151310314344e-09
Complementarity.........:   3.2600058365534269e-09    3.2600058365534269e-09
Overall NLP error.......:   7.2405427960435364e-09    4.5495107769966125e-07


Number of objective function evaluations             = 160
Number of objective gradient evaluations             = 31
Number of equality constraint evaluations            = 160
Number of inequality constraint evaluations          = 0
Number of equality constraint Jacobian evaluations   = 36
Number of inequality constraint Jacobian evaluations = 0
Number of Lagrangian Hessian evaluations             = 34
Total CPU secs in IPOPT (w/o function evaluations)   =      0.094
Total CPU secs in NLP function evaluations           =      1.642

EXIT: Optimal Solution Found.
